
******************************************************************************
This program contains Ipopt, a library for large-scale nonlinear optimization.
 Ipopt is released as open source code under the Eclipse Public License (EPL).
         For more information visit http://projects.coin-or.org/Ipopt
******************************************************************************

This is Ipopt version trunk, running with linear solver mumps.
NOTE: Other linear solvers might be more efficient (see Ipopt documentation).

Number of nonzeros in equality constraint Jacobian...:   322752
Number of nonzeros in inequality constraint Jacobian.:        0
Number of nonzeros in Lagrangian Hessian.............:        0

Total number of variables............................:      656
                     variables with only lower bounds:        0
                variables with lower and upper bounds:      656
                     variables with only upper bounds:        0
Total number of equality constraints.................:      492
Total number of inequality constraints...............:        0
        inequality constraints with only lower bounds:        0
   inequality constraints with lower and upper bounds:        0
        inequality constraints with only upper bounds:        0

iter    objective    inf_pr   inf_du lg(mu)  ||d||  lg(rg) alpha_du alpha_pr  ls
   0  2.6262687e+02 2.12e+03 5.67e+00   0.0 0.00e+00    -  0.00e+00 0.00e+00   0
   1  6.2532870e+02 2.48e-04 1.62e+01  -2.0 4.96e+00    -  9.90e-01 1.00e+00h  1
   2  2.4349436e+02 1.58e-05 9.20e+00  -4.0 3.51e+00    -  9.90e-01 1.00e+00f  1
   3  1.6092922e+02 9.61e-05 6.47e+00  -2.1 6.26e+00    -  9.97e-01 1.00e+00f  1
   4  3.5041596e+01 1.35e-05 2.06e+00  -3.8 2.26e+00    -  1.00e+00 1.00e+00f  1
   5  1.4714311e+01 1.51e-05 6.25e-01  -5.7 1.15e+00    -  1.00e+00 1.00e+00f  1
   6  9.3480439e+00 1.04e-05 4.93e-01  -7.6 8.12e-01    -  1.00e+00 1.00e+00f  1
   7  6.5952019e+00 1.78e-06 6.77e-01  -9.5 5.95e-01    -  1.00e+00 1.00e+00f  1
   8  5.2122481e+00 4.32e-06 6.34e-01 -11.0 3.12e+00    -  1.00e+00 2.50e-01f  3
   9  4.9423395e+00 4.04e-06 5.43e-01 -11.0 3.23e+00    -  1.00e+00 1.25e-01f  4
iter    objective    inf_pr   inf_du lg(mu)  ||d||  lg(rg) alpha_du alpha_pr  ls
  10  4.7505827e+00 3.41e-06 5.17e-01 -11.0 2.45e+00    -  1.00e+00 1.25e-01f  4
  11  4.7027491e+00 4.33e-06 5.24e-01 -11.0 4.39e+00    -  1.00e+00 1.25e-01f  4
  12  4.6624795e+00 3.27e-06 4.59e-01 -11.0 2.69e+00    -  1.00e+00 1.25e-01f  4
  13  4.4360851e+00 2.45e-06 4.74e-01 -11.0 1.86e+00    -  1.00e+00 2.50e-01f  3
  14  3.9440242e+00 1.53e-06 5.93e-01 -11.0 6.80e-01    -  1.00e+00 5.00e-01f  2
  15  3.5129172e+00 2.87e-06 7.92e-01 -11.0 1.12e+00    -  1.00e+00 5.00e-01f  2
  16  3.4517900e+00 2.54e-06 7.45e-01 -11.0 1.11e+00    -  1.00e+00 1.25e-01f  4
  17  3.3319200e+00 2.15e-06 5.49e-01 -11.0 1.73e+00    -  1.00e+00 2.50e-01f  3
  18  1.5683087e+01 5.79e-06 1.70e+00 -11.0 1.85e+00    -  1.00e+00 1.00e+00w  1
  19  2.0398628e+01 1.36e-05 2.06e+00 -11.0 8.44e-01    -  1.00e+00 1.00e+00w  1
iter    objective    inf_pr   inf_du lg(mu)  ||d||  lg(rg) alpha_du alpha_pr  ls
  20  5.8330842e+01 1.58e-05 5.90e+00 -11.0 3.91e+00    -  1.00e+00 1.00e+00w  1
  21  3.3242779e+00 1.91e-06 5.38e-01 -11.0 1.71e+00    -  1.00e+00 3.12e-02f  5
  22  3.0971380e+00 2.62e-06 4.31e-01 -11.0 9.99e-01    -  1.00e+00 5.00e-01f  2
  23  2.6706987e+00 2.83e-06 4.94e-01 -11.0 1.27e+00    -  1.00e+00 2.50e-01f  3
  24  2.4761427e+00 1.21e-06 5.92e-01 -11.0 6.11e-01    -  1.00e+00 5.00e-01f  2
  25  2.4179399e+00 1.09e-06 5.75e-01 -11.0 1.05e+00    -  1.00e+00 1.25e-01f  4
  26  2.3220744e+00 1.02e-06 5.40e-01 -11.0 1.40e+00    -  1.00e+00 1.25e-01f  4
  27  2.3022039e+00 1.02e-06 6.53e-01 -11.0 1.61e+00    -  1.00e+00 1.25e-01f  4
  28  2.2640848e+00 9.71e-07 5.68e-01 -11.0 1.57e+00    -  1.00e+00 6.25e-02f  5
  29  2.1583282e+00 1.16e-06 4.89e-01 -11.0 1.18e+00    -  1.00e+00 1.25e-01f  4
iter    objective    inf_pr   inf_du lg(mu)  ||d||  lg(rg) alpha_du alpha_pr  ls
  30  2.1445895e+00 6.18e-07 4.56e-01 -11.0 8.64e-01    -  1.00e+00 1.25e-01f  4
  31  5.4543557e+00 3.00e-06 9.66e-01 -11.0 8.26e-01    -  1.00e+00 1.00e+00w  1
  32  5.0167440e+00 2.78e-07 1.01e+00 -11.0 5.41e-01    -  1.00e+00 1.00e+00w  1
  33  7.4295736e+00 2.07e-06 2.33e+00 -11.0 1.68e+00    -  1.00e+00 1.00e+00w  1
  34  2.0932663e+00 5.24e-07 4.56e-01 -11.0 6.37e-01    -  1.00e+00 1.25e-01f  3
  35  1.8472133e+00 8.51e-07 3.00e-01 -11.0 5.73e-01    -  1.00e+00 5.00e-01f  2
  36  1.8196842e+00 5.25e-07 4.78e-01 -11.0 1.23e+00    -  1.00e+00 2.50e-01f  3
  37  1.7844909e+00 3.73e-07 4.52e-01 -11.0 6.85e-01    -  1.00e+00 1.25e-01f  4
  38  1.7232229e+00 5.93e-07 4.45e-01 -11.0 1.57e+00    -  1.00e+00 1.25e-01f  4
  39  1.7140082e+00 8.61e-07 4.52e-01 -11.0 8.49e-01    -  1.00e+00 1.25e-01f  4
iter    objective    inf_pr   inf_du lg(mu)  ||d||  lg(rg) alpha_du alpha_pr  ls
  40  1.7032576e+00 6.43e-07 4.44e-01 -11.0 1.36e+00    -  1.00e+00 1.25e-01f  4
  41  1.7003975e+00 5.90e-07 4.41e-01 -11.0 9.32e-01    -  1.00e+00 3.12e-02f  6
  42  1.6844605e+00 8.49e-07 4.45e-01 -11.0 1.60e+00    -  1.00e+00 1.25e-01f  4
Restoration phase is called at point that is almost feasible,
  with constraint violation 1.911729e-06. Abort.

Number of Iterations....: 42

                                   (scaled)                 (unscaled)
Objective...............:   1.6844605055384856e+00    1.6844605055384856e+00
Dual infeasibility......:   4.4472248076642690e-01    4.4472248076642690e-01
Constraint violation....:   7.8121106361878617e-08    8.4866479710399279e-07
Complementarity.........:   1.0001403646724653e-11    1.0001403646724653e-11
Overall NLP error.......:   4.4472248076642690e-01    4.4472248076642690e-01


Number of objective function evaluations             = 267
Number of objective gradient evaluations             = 44
Number of equality constraint evaluations            = 267
Number of inequality constraint evaluations          = 0
Number of equality constraint Jacobian evaluations   = 44
Number of inequality constraint Jacobian evaluations = 0
Number of Lagrangian Hessian evaluations             = 0
Total CPU secs in IPOPT (w/o function evaluations)   =     15.724
Total CPU secs in NLP function evaluations           =     10.378

EXIT: Restoration Failed!
